; benchmark generated from python API
(set-info :status unknown)
(declare-fun S_3 () Real)
(declare-fun A_3 () Real)
(declare-fun L_3 () Real)
(declare-fun S_4 () Real)
(declare-fun S_1 () Real)
(declare-fun S_2 () Real)
(declare-fun L_2 () Real)
(declare-fun A_2 () Real)
(declare-fun S_0 () Real)
(declare-fun A_0 () Real)
(declare-fun L_0 () Real)
(declare-fun A_1 () Real)
(declare-fun L_1 () Real)
(declare-fun A_4 () Real)
(declare-fun Q_4 () Real)
(assert
 (let (($x1383 (>= Q_4 0.0)))
 (let ((?x746 (* (- 1.0) L_1)))
 (let ((?x755 (* (- 1.0) L_2)))
 (let (($x121565 (= ?x755 ?x746)))
 (let (($x26717 (<= (+ (* (- 1.0) Q_4) (* (- 1.0) S_2) ?x746 A_1) 0.0)))
 (let ((?x829 (* (- 1.0) A_2)))
 (let ((?x885 (* (- 1.0) A_3)))
 (let ((?x704 (* (- 1.0) Q_4)))
 (let (($x22200 (<= (+ ?x704 A_4 L_3 ?x885 ?x746 A_1 ?x829) 0.0)))
 (let (($x2366 (not (<= (+ ?x755 L_3) 0.0))))
 (let ((?x737 (* (- 1.0) L_0)))
 (let (($x121635 (= ?x746 ?x737)))
 (let (($x13927 (<= (+ ?x704 A_0 ?x737 (* 2.0 L_1) ?x755 (* (- 2.0) A_1) A_2) 0.0)))
 (let (($x4225 (<= (+ ?x746 Q_4 (* 2.0 A_4) A_1 L_3 (* (- 3.0) A_3)) 0.0)))
 (let ((?x2425 (* (- 3.0) A_3)))
 (let ((?x2393 (* 2.0 A_4)))
 (let ((?x2390 (* (- 2.0) Q_4)))
 (let (($x2858 (<= (+ ?x746 ?x2390 ?x2393 A_1 L_3 ?x2425) 0.0)))
 (let ((?x2168 (* 3.0 A_2)))
 (let ((?x1339 (* (- 3.0) A_0)))
 (let ((?x1346 (* (- 2.0) L_2)))
 (let ((?x2401 (* 3.0 S_0)))
 (let ((?x2157 (* (- 2.0) A_1)))
 (let ((?x1215 (* (- 1.0) A_4)))
 (let (($x2403 (<= (+ (* 5.0 L_1) Q_4 ?x1215 ?x2157 ?x2401 ?x1346 ?x1339 ?x2168) 0.0)))
 (let ((?x1335 (* 2.0 L_2)))
 (let ((?x1032 (* (- 1.0) A_1)))
 (let ((?x2410 (* 3.0 A_3)))
 (let ((?x1277 (* (- 3.0) L_3)))
 (let ((?x2355 (* (- 2.0) A_4)))
 (let ((?x2123 (* 2.0 Q_4)))
 (let (($x2506 (= Q_4 0.0)))
 (let (($x384115 (or $x2403 $x2506 $x13927 (<= (+ ?x2123 ?x2355 ?x1277 ?x2410 L_1 ?x1032 ?x1335) 0.0) $x121635)))
 (let (($x1669 (<= (+ ?x704 A_0 (* (- 1.0) S_1) ?x746) 0.0)))
 (let ((?x2120 (* (- 3.0) A_2)))
 (let ((?x2119 (* 3.0 L_2)))
 (let ((?x2128 (* 2.0 A_1)))
 (let ((?x1319 (* 3.0 Q_4)))
 (let ((?x1334 (* (- 2.0) L_1)))
 (let (($x13850 (<= (+ ?x2123 A_0 ?x737 S_4 ?x1335 (* (- 2.0) A_2)) 0.0)))
 (let (($x2611 (<= (+ ?x746 A_1 (* (- 1.0) L_3) ?x1335 (* (- 2.0) A_2) A_3) 0.0)))
 (let (($x2560 (not $x2611)))
 (let (($x2125 (<= (+ ?x2123 (* (- 1.0) L_3) A_3 ?x746 A_1 ?x1335 (* (- 2.0) A_2)) 0.0)))
 (let (($x150419 (or $x2125 $x2560 $x13850 (<= (+ ?x1334 ?x1319 ?x2128 S_4 ?x2119 ?x2120) 0.0) $x121565)))
 (let (($x21605 (<= (+ ?x1334 ?x2128 (* (- 1.0) S_3) L_0 (* (- 1.0) A_0)) 0.0)))
 (let (($x3010 (<= (+ A_2 ?x755 (* (- 1.0) S_3)) 0.0)))
 (let (($x111909 (or $x3010 (not $x21605) (<= (+ L_3 ?x885 S_4 ?x746 A_1 (* (- 1.0) S_3)) 0.0))))
 (let ((?x6149 (* 2.0 S_4)))
 (let ((?x2561 (* (- 2.0) A_3)))
 (let ((?x2566 (* 2.0 L_3)))
 (let (($x377651 (or (<= (+ Q_4 L_3 ?x885 S_4 ?x746 A_1 L_2 ?x829) 0.0) $x2506 (<= (+ Q_4 ?x2566 ?x2561 ?x6149 A_0 ?x737 L_2 ?x829) 0.0) $x121565)))
 (let (($x26726 (<= (+ ?x2390 (* (- 1.0) A_0) L_0 (* (- 1.0) S_3) ?x1334 ?x2128) 0.0)))
 (let (($x1318 (<= (+ ?x704 A_4 A_0 ?x737 (* (- 2.0) S_3) (* (- 1.0) L_3)) 0.0)))
 (let ((?x2167 (* (- 3.0) A_1)))
 (let ((?x2169 (* 3.0 L_1)))
 (let ((?x4447 (* (- 2.0) L_0)))
 (let ((?x3721 (* 2.0 A_0)))
 (let (($x13863 (<= (+ ?x1319 A_0 ?x737 (* 2.0 S_3) ?x2119 ?x2120) 0.0)))
 (let (($x8818 (<= (+ ?x2168 (* (- 3.0) L_2) (* (- 2.0) S_3) L_0 (* (- 1.0) A_0)) 0.0)))
 (let (($x1675 (<= (+ Q_4 (* (- 1.0) A_0) S_0 L_1) 0.0)))
 (let (($x384916 (or $x1675 $x8818 $x13863 (<= (+ ?x1319 ?x3721 ?x4447 S_3 ?x2169 ?x2167) 0.0) $x121635)))
 (let ((?x1375 (* (- 4.0) A_1)))
 (let ((?x1374 (* 4.0 L_1)))
 (let ((?x1326 (* (- 3.0) L_0)))
 (let ((?x1325 (* 3.0 A_0)))
 (let ((?x26731 (* 4.0 Q_4)))
 (let (($x26729 (<= (+ ?x26731 ?x1325 ?x1326 S_4 ?x1374 ?x1375) 0.0)))
 (let (($x1706 (<= (+ (* (/ 1.0 2.0) A_0) (* (- (/ 1.0 2.0)) L_0) (* (/ 1.0 2.0) S_4) L_2 ?x829) 0.0)))
 (let (($x1607 (not $x1706)))
 (let (($x59193 (<= (+ ?x2123 ?x829 L_2 S_4 ?x3721 ?x4447 (* 2.0 L_1) ?x2157) 0.0)))
 (let (($x58231 (<= (+ ?x704 A_2 ?x755 (* (- 1.0) A_0) L_0 ?x746 L_3 A_1 ?x885) 0.0)))
 (let (($x2623 (<= (+ ?x746 A_1 L_3 L_0 ?x755 (* (- 1.0) A_0) A_2 ?x885) 0.0)))
 (let ((?x902 (* (- 1.0) A_0)))
 (let ((?x764 (* (- 1.0) L_3)))
 (let ((?x8674 (* 2.0 S_1)))
 (let ((?x4506 (* 2.0 L_0)))
 (let ((?x3738 (* (- 2.0) A_0)))
 (let (($x15647 (<= (+ Q_4 ?x1215 A_2 ?x755 ?x3738 ?x4506 ?x8674 L_3) 0.0)))
 (let (($x1343 (<= (+ Q_4 ?x1215 ?x1339 (* 3.0 L_0) (* 4.0 S_1) L_3) 0.0)))
 (let (($x156542 (or $x1343 $x2506 $x15647 (<= (+ Q_4 ?x1215 ?x764 A_3 ?x902 L_0 S_1 L_2) 0.0))))
 (let (($x32181 (<= (+ (* (/ 1.0 3.0) S_4) (* (/ 2.0 3.0) A_0) (* (- (/ 2.0 3.0)) L_0) L_1 ?x1032) 0.0)))
 (let (($x21671 (<= (+ L_1 ?x2390 ?x1032 (* (- 1.0) S_4) ?x1346 (* 2.0 A_2)) 0.0)))
 (let (($x2843 (<= (+ ?x746 ?x2390 ?x2393 A_1 (* (- 3.0) S_4) (* (- 2.0) L_3)) 0.0)))
 (let (($x2024 (<= (+ ?x764 A_3 (* (- 1.0) S_4)) 0.0)))
 (let (($x22146 (<= (+ Q_4 ?x1215 ?x764 A_3 (* 2.0 L_1) ?x1032 S_0 ?x902 A_2) 0.0)))
 (let ((?x1244 (* (- 4.0) S_4)))
 (let ((?x1279 (* 3.0 A_4)))
 (let ((?x1308 (* (- 3.0) Q_4)))
 (let (($x1264 (<= (+ ?x1308 ?x1279 A_0 ?x737 ?x1244 ?x1277) 0.0)))
 (let ((?x1667 (* (- 1.0) S_1)))
 (let ((?x70878 (* (/ 2.0 3.0) S_3)))
 (let ((?x31800 (* (- (/ 1.0 3.0)) L_0)))
 (let ((?x32288 (* (/ 4.0 3.0) A_0)))
 (let ((?x7663 (* (/ 1.0 2.0) S_3)))
 (let ((?x5090 (* (/ 1.0 2.0) A_1)))
 (let ((?x5418 (* (- (/ 3.0 2.0)) L_1)))
 (let (($x5963 (<= (+ ?x746 S_3 ?x1667 L_3 A_0 ?x885) 0.0)))
 (let (($x377376 (or $x5963 (<= (+ ?x5418 ?x5090 ?x7663 ?x1667 L_2 A_0 ?x829) 0.0) (<= (+ ?x32288 ?x31800 ?x70878 ?x1667 L_2 ?x746 ?x829) 0.0) $x121565)))
 (let (($x49231 (<= (+ Q_4 S_3 L_3 ?x885) 0.0)))
 (let (($x373967 (or $x1675 $x49231 (<= (+ Q_4 ?x829 L_2 S_3 A_0 ?x737 L_1 ?x1032) 0.0) $x121635)))
 (let ((?x2118 (* 3.0 A_1)))
 (let ((?x2117 (* (- 3.0) L_1)))
 (let ((?x1487 (* (- 1.0) S_4)))
 (let (($x26751 (<= (+ ?x1308 ?x3738 ?x4506 ?x1487 ?x2117 ?x2118) 0.0)))
 (let (($x1280 (not (<= (+ ?x704 A_4 A_0 ?x737 ?x764 ?x1335 (* (- 2.0) A_2)) 0.0))))
 (let (($x381038 (or (<= (+ Q_4 ?x902 L_0 ?x8674 L_2 ?x829) 0.0) (not (<= (+ ?x902 L_0 ?x8674 L_2 ?x829) 0.0)) $x121565)))
 (let (($x13925 (<= (+ ?x704 ?x902 L_0 ?x1334 L_2 ?x2128 ?x829) 0.0)))
 (let (($x2025 (<= (+ ?x704 (* (- 1.0) S_3) ?x755 A_2) 0.0)))
 (let (($x2070 (<= (+ ?x746 A_1 (* (- 1.0) S_2)) 0.0)))
 (let (($x381798 (or $x2070 (<= (+ A_2 ?x755 A_0 (* (- 1.0) S_2) ?x737 L_1 ?x1032) 0.0) (<= (+ ?x737 (* (- 2.0) S_2) S_0 L_1 ?x755 A_2) 0.0) $x121635)))
 (let ((?x1664 (* (- (/ 1.0 2.0)) S_4)))
 (let ((?x5492 (* (- (/ 1.0 2.0)) A_1)))
 (let ((?x5400 (* (/ 3.0 2.0) L_1)))
 (let ((?x31665 (+ (* (- (/ 2.0 3.0)) S_4) (* (- (/ 4.0 3.0)) A_0) (* (/ 1.0 3.0) L_0) S_0 L_1 ?x755 A_2)))
 (let (($x32542 (<= ?x31665 0.0)))
 (let (($x162346 (or $x2024 (not $x32542) (<= (+ ?x5400 ?x5492 ?x1664 S_0 ?x755 ?x902 A_2) 0.0) $x121635)))
 (let (($x36963 (<= (+ A_0 ?x737 L_3 ?x2169 (* (- 3.0) L_2) ?x2167 ?x2168 ?x885) 0.0)))
 (let ((?x1436 (* 4.0 A_2)))
 (let ((?x1437 (* (- 4.0) L_2)))
 (let ((?x1347 (* 2.0 A_2)))
 (let ((?x1345 (* 2.0 L_1)))
 (let ((?x1344 (* 2.0 S_0)))
 (let (($x1349 (<= (+ Q_4 ?x1215 ?x1339 L_0 ?x1344 L_3 ?x1345 ?x1346 ?x1347) 0.0)))
 (let (($x382997 (or $x1349 $x2506 (<= (+ Q_4 ?x1215 A_0 ?x737 L_3 ?x1374 ?x1437 ?x1375 ?x1436) 0.0) (not $x36963) $x121635)))
 (let (($x15667 (<= (+ Q_4 ?x1215 ?x1347 ?x1346 ?x902 L_0 L_3) 0.0)))
 (let (($x15650 (not $x15667)))
 (let (($x15649 (<= (+ ?x704 A_4 A_2 ?x755 (* (- 2.0) S_4) ?x764) 0.0)))
 (let (($x385666 (or $x2024 $x15649 $x15650 $x26751 (<= (+ ?x704 A_2 ?x755 ?x1487 ?x902 L_0 ?x746 A_1) 0.0))))
 (let (($x49274 (<= (+ ?x704 ?x1487 ?x764 A_3) 0.0)))
 (let ((?x1358 (* (- 4.0) A_2)))
 (let ((?x1357 (* 4.0 A_1)))
 (let ((?x1356 (* 4.0 L_2)))
 (let ((?x1369 (* (- 4.0) L_1)))
 (let (($x1371 (<= (+ ?x704 A_4 ?x902 L_0 ?x764 ?x1369 ?x1356 ?x1357 ?x1358) 0.0)))
 (let (($x37351 (<= (+ ?x902 L_0 S_1 ?x746 L_2 A_1 ?x829) 0.0)))
 (let (($x50941 (<= (+ ?x704 A_4 L_3 ?x885 A_0 ?x737 (* (- 1.0) S_2) ?x755) 0.0)))
 (let (($x13886 (<= (+ ?x704 A_0 ?x737 (* (- 2.0) S_2) ?x755 A_2) 0.0)))
 (let ((?x2569 (* 2.0 A_3)))
 (let ((?x2600 (* (- 2.0) L_3)))
 (let (($x102424 (<= (+ ?x2123 ?x2355 ?x2600 ?x2569 ?x3738 L_0 S_0 L_2 L_1 A_2) 0.0)))
 (let (($x381706 (or $x1349 $x2506 $x36963 (<= (+ Q_4 ?x1215 ?x764 A_3 L_1 ?x1032 A_2) 0.0) $x102424 $x121635)))
 (let ((?x2397 (* (- 3.0) S_1)))
 (let ((?x2396 (* (- 5.0) L_1)))
 (let ((?x1336 (* (- 2.0) A_2)))
 (let ((?x1333 (* (- 2.0) S_1)))
 (let (($x377861 (or (<= (+ ?x704 A_4 ?x1325 ?x737 ?x1333 ?x764 ?x1334 ?x1335 ?x1336) 0.0) $x1669 (<= (+ ?x2396 ?x704 A_4 ?x2128 ?x2397 ?x764 ?x2119 ?x1325 ?x2120) 0.0) $x121565)))
 (let (($x50714 (<= (+ ?x2390 ?x2393 ?x2566 ?x2561 A_0 (* (- 1.0) S_3) ?x737 ?x1346) 0.0)))
 (let (($x22157 (<= (+ ?x704 A_4 L_3 ?x885 ?x746 A_1 (* (- 1.0) S_3) ?x755) 0.0)))
 (let (($x6125 (<= (+ ?x5418 (* (/ 3.0 2.0) A_1) ?x1664 L_0 ?x902) 0.0)))
 (let (($x108826 (or $x2070 (<= (+ ?x829 L_2 S_4 ?x3721 (* (- 2.0) S_2) ?x4447) 0.0))))
 (let (($x388332 (or $x32542 (<= (+ ?x1487 A_0 ?x737 ?x2169 (* (- 3.0) L_2) ?x2167 ?x2168) 0.0) $x49274 $x121635)))
 (let (($x2786 (<= (+ ?x1334 ?x704 A_4 ?x2128 (* (- 3.0) S_3) ?x764) 0.0)))
 (let (($x2856 (<= (+ ?x1369 Q_4 ?x1215 ?x1357 L_3 (* 3.0 L_0) ?x1339) 0.0)))
 (let (($x380952 (or $x1675 (not $x13927) (<= (+ Q_4 A_0 ?x737 ?x1345 ?x755 ?x2157 A_2) 0.0) $x121635)))
 (let ((?x1626 (* (- (/ 1.0 2.0)) L_0)))
 (let ((?x8655 (* (- (/ 1.0 2.0)) S_3)))
 (let ((?x1612 (* (/ 1.0 2.0) A_0)))
 (let (($x380174 (or $x1669 $x2366 (<= (+ ?x704 A_4 L_3 ?x885 ?x1334 A_1 ?x1667 A_0 ?x829) 0.0) (<= (+ ?x2390 ?x2393 ?x2566 ?x2561 ?x3721 ?x737 ?x1667 ?x755 ?x746 ?x829) 0.0) $x121565)))
 (let (($x2130 (<= (+ Q_4 ?x1334 ?x2128 L_0 L_2 ?x902 ?x829) 0.0)))
 (let (($x142580 (or $x1675 $x2506 (<= (+ Q_4 L_3 ?x885 S_4 A_0 ?x737 L_1 ?x1032) 0.0) $x121635)))
 (let (($x1332 (<= (+ Q_4 ?x1215 ?x902 L_0 (* 2.0 S_2) L_3) 0.0)))
 (let (($x368844 (or $x1332 $x2506 (<= (+ ?x2123 ?x2355 ?x2600 ?x2569 ?x902 L_0 S_2 ?x1335) 0.0))))
 (let (($x378508 (or $x2025 (<= (+ L_1 (* (- 1.0) S_3) S_0 ?x755 ?x902 A_2) 0.0) (<= (+ A_0 ?x737 (* (- 1.0) S_3) ?x1345 ?x1346 ?x2157 ?x1347) 0.0) $x121635)))
 (let (($x121752 (= ?x764 ?x755)))
 (let (($x49199 (<= (+ ?x2123 A_2 ?x755 S_4 ?x2566 ?x2561) 0.0)))
 (let ((?x5884 (* (/ 3.0 2.0) A_1)))
 (let ((?x5415 (* (/ 1.0 2.0) L_3)))
 (let (($x8264 (<= (+ ?x5415 (* (- (/ 1.0 2.0)) A_3) ?x5418 ?x5884 L_0 ?x902) 0.0)))
 (let (($x49210 (<= (+ Q_4 A_2 ?x755 ?x746 A_1 L_0 L_3 ?x902 ?x885) 0.0)))
 (let (($x2572 (not $x2623)))
 (let ((?x1380 (* (- 4.0) A_3)))
 (let ((?x7912 (* 4.0 L_3)))
 (let ((?x20076 (* 3.0 S_4)))
 (let (($x1704 (<= (+ (* (/ 3.0 4.0) A_0) (* (- (/ 3.0 4.0)) L_0) (* (/ 1.0 4.0) S_4) L_1 ?x1032) 0.0)))
 (let (($x377450 (or (not $x1704) $x26729 $x49199 (<= (+ ?x26731 A_0 ?x737 ?x20076 ?x7912 ?x1380) 0.0) $x121752)))
 (let (($x56049 (<= (+ (* (- (/ 1.0 3.0)) L_1) (* (/ 1.0 3.0) A_1) (* (/ 2.0 3.0) S_4) L_3 ?x885) 0.0)))
 (let (($x374473 (or $x1704 $x49199 (<= (+ ?x746 ?x1319 A_1 ?x6149 (* 3.0 L_3) ?x2425) 0.0) (not $x56049) $x121752)))
 (let (($x21731 (<= (+ ?x1345 ?x2390 ?x1215 ?x2157 (* (- 3.0) L_2) L_3 ?x2168) 0.0)))
 (let ((?x5676 (+ (* (/ 3.0 2.0) A_2) (* (- (/ 3.0 2.0)) L_2) (* (- (/ 1.0 2.0)) A_4) ?x5415 L_1 ?x1032)))
 (let (($x4259 (<= (+ ?x1374 ?x2123 ?x2355 ?x1032 ?x2401 ?x764 ?x1339 ?x2410) 0.0)))
 (let (($x1377 (<= (+ ?x704 A_4 ?x1325 ?x1326 ?x764 ?x1374 ?x1375) 0.0)))
 (let (($x49284 (<= (+ L_1 ?x704 ?x1032 ?x1346 L_3 ?x1347 ?x885) 0.0)))
 (let (($x4244 (<= (+ L_1 ?x704 A_4 ?x1032 ?x2566 (* (- 3.0) L_2) ?x2168 ?x2425) 0.0)))
 (let (($x373813 (or $x2506 (<= (+ Q_4 ?x1215 ?x829 L_2 (* 2.0 S_3) L_3) 0.0))))
 (let (($x2087 (<= (+ Q_4 S_2 L_2 ?x829) 0.0)))
 (let (($x147429 (or $x2087 (<= (+ ?x2123 ?x902 L_0 (* 3.0 S_2) ?x2566 ?x2561) 0.0) $x121752)))
 (let (($x26737 (<= (+ Q_4 S_1 L_1 ?x1032) 0.0)))
 (let (($x148048 (or $x26737 (<= (+ Q_4 ?x3738 ?x4506 (* 3.0 S_1) L_3 ?x885) 0.0) (<= (+ Q_4 A_2 ?x755 ?x902 L_0 S_1 L_3 ?x885) 0.0) $x121752)))
 (let (($x91444 (or $x2070 (<= (+ L_3 ?x885 S_4 A_0 ?x737 (* (- 1.0) S_2)) 0.0))))
 (let (($x55583 (<= (+ ?x2390 ?x3738 ?x4506 ?x2117 L_3 ?x2118 ?x885) 0.0)))
 (let (($x13906 (<= (+ ?x704 ?x1215 ?x902 L_0 ?x1346 L_3 ?x1347) 0.0)))
 (let (($x13872 (not $x13906)))
 (let (($x13257 (<= (+ ?x704 A_4 ?x902 L_0 L_3 ?x1334 ?x2128 ?x2561) 0.0)))
 (let (($x381298 (or $x2087 (<= (+ L_1 Q_4 ?x1032 (* 2.0 S_2) L_3 ?x885) 0.0) $x121752)))
 (let (($x175498 (or $x1318 $x2786 $x3010 (<= (+ ?x746 ?x704 A_1 (* (- 2.0) S_3) ?x764 A_3) 0.0) (<= (+ ?x2390 A_0 ?x737 (* (- 3.0) S_3) ?x2600 ?x2569) 0.0))))
 (let (($x15621 (<= (+ ?x704 A_4 ?x829 L_2 ?x3721 (* (- 2.0) S_2) ?x4447 ?x764) 0.0)))
 (let ((?x1619 (* (- 1.0) S_3)))
 (let ((?x31234 (* (/ 1.0 3.0) S_4)))
 (let ((?x55873 (* (/ 2.0 3.0) A_1)))
 (let ((?x58854 (* (- (/ 2.0 3.0)) L_1)))
 (let (($x368300 (or $x1675 $x2125 $x2572 (<= (+ Q_4 ?x1347 ?x1346 L_1 ?x1032 L_3 ?x885) 0.0) $x121635)))
 (let (($x5171 (<= (+ ?x829 L_2 A_0 ?x737 ?x764 L_1 ?x1032 A_3) 0.0)))
 (let (($x152637 (or $x2506 $x5171 (<= (+ Q_4 ?x1215 ?x829 L_2 ?x3738 ?x1344 ?x764 ?x1345 ?x2569) 0.0) $x121635)))
 (let (($x2847 (<= (+ ?x1334 ?x2123 A_4 ?x2128 ?x764 ?x2119 ?x2120) 0.0)))
 (let (($x372317 (or $x1377 $x2847 $x4259 (<= (+ ?x1347 ?x1346 ?x1032 (* (- 1.0) S_0) L_3 A_0 ?x885) 0.0) $x121635)))
 (let (($x19250 (<= (+ ?x829 L_2 (* (- 1.0) S_2) ?x737 S_0 ?x764 L_1 A_3) 0.0)))
 (let (($x60442 (<= (+ ?x704 ?x829 L_2 A_0 (* (- 1.0) S_2) ?x737 ?x764 A_3) 0.0)))
 (let (($x11474 (<= (+ L_3 L_1 ?x1346 ?x1032 ?x1347 ?x885) 0.0)))
 (let (($x4224 (not $x4244)))
 (let (($x2619 (<= (+ L_1 ?x1032 A_4 ?x2566 (* (- 3.0) L_2) ?x2168 ?x2425) 0.0)))
 (let (($x2607 (<= (+ ?x1345 ?x1032 S_0 L_3 ?x1346 ?x902 ?x1347 ?x885) 0.0)))
 (let (($x57167 (<= (+ ?x704 ?x902 L_0 (* (- 3.0) L_2) ?x2566 ?x2168 ?x2561) 0.0)))
 (let (($x150469 (or $x2607 (<= (+ ?x2566 ?x2561 ?x2168 (* (- 3.0) L_2) ?x902 L_0) 0.0) $x21731 (not $x57167) $x121635 $x121752)))
 (let ((?x1361 (* 4.0 A_3)))
 (let ((?x1320 (* (- 3.0) A_4)))
 (let ((?x12549 (+ ?x1319 ?x1320 (* (- 5.0) A_0) L_0 (* 4.0 S_0) ?x764 ?x1374 ?x1361)))
 (let (($x180273 (or $x2506 (<= ?x12549 0.0) (<= (+ Q_4 ?x1215 A_0 ?x737 ?x764 ?x1345 ?x2157 ?x2569) 0.0) $x121635)))
 (let (($x151665 (or $x2025 (<= (+ A_0 ?x737 ?x1619 ?x764 L_1 ?x1032 A_3) 0.0) $x21605 (<= (+ ?x902 ?x737 (* (- 3.0) S_3) ?x1344 ?x2600 ?x1345 ?x2569) 0.0) $x121635)))
 (let (($x158199 (or $x2025 $x2572 (<= (+ A_1 (* (- 2.0) S_3) S_0 ?x764 ?x902 A_3) 0.0) (<= (+ A_0 ?x4447 S_0 ?x764 ?x1374 ?x2167 A_3) 0.0) $x121635)))
 (let (($x5925 (<= (+ ?x3738 ?x4506 ?x8674 L_3 ?x746 A_1 ?x885) 0.0)))
 (let (($x1365 (<= (+ Q_4 A_4 A_0 ?x737 ?x764 ?x1335 ?x1336) 0.0)))
 (let (($x1298 (not (<= (+ ?x1308 ?x1279 A_0 ?x737 L_3 ?x1380) 0.0))))
 (let (($x30292 (<= (+ ?x1612 (* (/ 1.0 2.0) L_0) (* (/ 3.0 2.0) S_2) ?x1667 L_3 ?x746 ?x885) 0.0)))
 (let ((?x1466 (* (- 4.0) S_1)))
 (let ((?x13255 (* 5.0 A_0)))
 (let (($x160212 (or $x1669 (<= (+ ?x1369 ?x2390 ?x2393 A_1 ?x2397 L_3 ?x1325 ?x2425) 0.0) (<= (+ ?x1308 ?x1279 ?x13255 ?x737 ?x1466 L_3 ?x1369 ?x1380) 0.0) (<= (+ ?x704 A_4 A_2 ?x755 ?x3721 ?x1333 L_3 ?x1334 ?x2561) 0.0) $x121752)))
 (let (($x164586 (or $x1669 (<= (+ ?x1032 (* 2.0 S_2) ?x1667 L_3 A_0 ?x885) 0.0) $x121752)))
 (let (($x2845 (<= (+ ?x746 Q_4 ?x1215 A_1 ?x2600 ?x2119 ?x2120 ?x2410) 0.0)))
 (let (($x173844 (or $x2845 $x5171 $x11474 (not (<= (+ L_1 ?x2390 ?x1032 ?x1346 L_3 ?x1347 ?x885) 0.0)) $x121565)))
 (let ((?x5313 (* (- (/ 1.0 2.0)) L_1)))
 (let ((?x8242 (* (/ 1.0 2.0) A_3)))
 (let ((?x5646 (* (- (/ 1.0 2.0)) L_3)))
 (let (($x8250 (<= (+ ?x5646 ?x8242 ?x5313 ?x5090 L_2 ?x829) 0.0)))
 (let (($x12691 (<= (+ ?x704 A_4 ?x902 L_0 (* 3.0 L_3) ?x1437 ?x1436 ?x1380) 0.0)))
 (let (($x153219 (or $x1349 (<= (+ A_4 (* 3.0 L_3) L_0 ?x1437 ?x902 ?x1436 ?x1380) 0.0) $x11474 (not $x12691) $x121635)))
 (let (($x164424 (or $x3010 (<= (+ (* (- (/ 1.0 2.0)) A_0) ?x8655 (* (/ 1.0 2.0) L_0) S_1) 0.0))))
 (let (($x1329 (<= (+ ?x704 A_4 ?x1325 ?x1326 (* (- 4.0) S_2) ?x764) 0.0)))
 (let (($x181536 (or $x1329 $x2070 (<= (+ ?x704 ?x3721 ?x4447 (* (- 3.0) S_2) ?x764 A_3) 0.0))))
 (let (($x5193 (<= (+ A_2 ?x755 ?x902 L_0 S_1 L_3 ?x885) 0.0)))
 (let (($x148390 (or $x2560 (<= (+ ?x3721 ?x4447 S_3 ?x2169 ?x2167) 0.0) (<= (+ ?x746 ?x2123 A_1 S_3 ?x1335 ?x1336) 0.0) $x121565)))
 (let (($x2825 (<= (+ ?x1345 Q_4 ?x1215 ?x2157 (* 3.0 S_2) L_3) 0.0)))
 (let (($x150124 (or $x2825 (<= (+ ?x746 A_1 A_4 (* (- 1.0) S_2) ?x755 L_3 ?x885) 0.0) (<= (+ Q_4 ?x1215 ?x764 A_3 L_1 ?x1032 S_2 L_2) 0.0))))
 (let (($x30542 (<= (+ ?x1487 (* (- (/ 1.0 2.0)) A_0) (* (/ 1.0 2.0) L_0) (* (/ 3.0 2.0) S_2)) 0.0)))
 (let (($x8112 (<= (+ ?x902 L_0 S_2 L_3 ?x746 A_1 ?x885) 0.0)))
 (let (($x177187 (or (<= (+ ?x746 A_1 ?x1487 ?x2600 ?x1335 ?x1336 ?x2569) 0.0) (<= (+ ?x1487 A_0 ?x737 ?x1277 ?x2119 ?x2120 ?x2410) 0.0) $x49274 $x121565)))
 (let (($x13919 (<= (+ Q_4 A_0 ?x737 ?x2119 ?x2600 ?x2120 ?x2569) 0.0)))
 (let (($x8890 (<= (+ ?x3738 ?x4506 (* 2.0 S_3) (* 3.0 L_3) ?x2117 ?x2118 ?x2425) 0.0)))
 (let (($x19079 (<= (+ ?x902 L_0 S_3 (* 3.0 L_3) (* (- 3.0) L_2) ?x2168 ?x2425) 0.0)))
 (let (($x27584 (<= (+ ?x3738 L_0 S_0 ?x2566 L_1 (* (- 3.0) L_2) ?x2168 ?x2561) 0.0)))
 (let (($x9035 (<= (+ (* (- 2.0) S_4) ?x3721 ?x4447 ?x1277 ?x2169 ?x2167 ?x2410) 0.0)))
 (let (($x31638 (<= (+ (* (- (/ 1.0 3.0)) S_4) (* (- (/ 2.0 3.0)) A_0) (* (/ 2.0 3.0) L_0) S_1) 0.0)))
 (let (($x2332 (<= (+ L_1 ?x1032 S_2 L_3 ?x755 A_2 ?x885) 0.0)))
 (let (($x8633 (<= (+ ?x3721 ?x4447 (* (- 2.0) S_2) ?x764 L_1 ?x1032 A_3) 0.0)))
 (let (($x168686 (or $x8633 $x26717 (<= (+ A_0 ?x4447 (* (- 3.0) S_2) S_0 ?x764 L_1 A_3) 0.0) $x121635)))
 (let (($x154433 (or (<= (+ Q_4 ?x1215 A_0 ?x737 ?x1277 ?x1356 ?x1358 ?x1361) 0.0) $x2506 $x2856 $x121565)))
 (let (($x186521 (or $x1675 $x8264 (<= (+ ?x2123 ?x3721 ?x4447 ?x2169 ?x764 ?x2167 A_3) 0.0) $x121635)))
 (let (($x2800 (<= (+ L_1 ?x2123 ?x2355 ?x1032 (* 3.0 S_3) ?x2566) 0.0)))
 (let (($x13904 (<= (+ ?x1308 ?x902 L_0 (* (- 2.0) S_4) (* (- 3.0) L_2) ?x2168) 0.0)))
 (let (($x161353 (or (<= (+ Q_4 ?x764 A_3 ?x746 A_1 ?x1335 ?x1336) 0.0) $x2506 $x13919 $x121565)))
 (let (($x153150 (or $x2025 (<= (+ ?x746 A_1 ?x1619 ?x764 L_2 ?x829 A_3) 0.0) (<= (+ A_0 ?x737 ?x1619 ?x2600 ?x1335 ?x1336 ?x2569) 0.0) $x121565)))
 (let (($x171714 (or $x2070 (<= (+ ?x764 A_3 ?x829 L_2 A_0 (* (- 1.0) S_2) ?x737) 0.0) $x121565)))
 (let (($x177923 (or $x1669 (<= (+ ?x1334 A_1 ?x1667 ?x764 ?x1335 A_0 ?x1336 A_3) 0.0) (<= (+ ?x3721 ?x737 ?x1667 ?x2600 ?x746 ?x2119 ?x2120 ?x2569) 0.0) $x121565)))
 (let (($x1324 (<= (+ ?x1319 ?x1320 ?x902 L_0 (* 4.0 S_3) (* 3.0 L_3)) 0.0)))
 (let (($x2101 (<= (+ ?x1215 A_3 L_1 ?x1032 ?x755 A_2) 0.0)))
 (let (($x389273 (or $x2024 (<= (+ ?x5313 ?x5090 (* (/ 1.0 2.0) S_4) L_2 ?x829) 0.0) $x121565)))
 (let (($x182237 (or $x2506 $x2825 (not (<= (+ ?x1334 ?x2128 ?x2393 (* (- 2.0) S_2) ?x2561) 0.0)))))
 (let (($x19876 (or $x2070 (<= (+ ?x829 L_2 S_3 A_0 (* (- 1.0) S_2) ?x737) 0.0))))
 (let (($x4465 (<= (+ L_1 ?x1487 S_0 ?x764 ?x902 A_3) 0.0)))
 (let ((?x1659 (* (- 1.0) S_2)))
 (let ((?x1658 (* (/ 1.0 4.0) S_4)))
 (let ((?x1657 (* (- (/ 3.0 4.0)) L_0)))
 (let ((?x1656 (* (/ 3.0 4.0) A_0)))
 (and (<= ?x746 ?x737) (<= ?x764 ?x755) (<= ?x755 ?x746) (or (<= (+ ?x1656 ?x1657 ?x1658 ?x1659) 0.0) $x2070) (or $x2087 $x121565) (or (<= (+ ?x746 S_2 ?x1667 L_2 A_0 ?x829) 0.0) $x121565) (or $x5963 $x121752) (or $x2024 (<= (+ (* (/ 1.0 2.0) L_1) ?x5492 ?x1664 S_2) 0.0)) (or $x1298 $x1332 $x2506) (or $x1675 $x2506 $x5171 $x121635) (or $x2024 $x2623 $x5925 $x121752) (or $x1329 $x1669 $x2070) (or $x2024 $x4465 $x5171 $x121635) (or $x2024 $x4465 $x9035 $x121635) $x19876 (or $x1324 $x13872 $x15667) (or $x1669 $x2070 $x15621) $x182237 (or $x1675 $x2506 (<= (+ ?x2123 A_0 ?x737 S_2 ?x1345 ?x2157) 0.0) $x121635) (or $x1264 $x2024 $x6125 $x13904) $x389273 (or $x1343 $x2101 $x2506 $x2847 $x13906) (or $x1343 $x2101 $x13872 $x15667) (or $x2070 (<= (+ ?x3721 ?x4447 S_3 (* (- 3.0) S_2)) 0.0)) (or $x1329 $x2070 $x13886) (or $x2800 (<= (+ ?x746 A_1 ?x2393 (* (- 3.0) S_3) ?x2600) 0.0)) (or $x1324 $x2506) (or $x1669 $x8112 $x121752) (or $x1669 $x2623 $x8890 $x121752) (or $x1371 $x1669 $x121565) (or $x2025 $x4244 $x121752) (or $x1298 $x1343 (<= (+ A_4 ?x1325 ?x1326 ?x1466 ?x764) 0.0) $x13906) (or $x2025 $x5193 $x121752) (or $x2025 $x11474 $x27584 $x121635 $x121752) (or $x8633 $x26717 $x27584 $x121635 $x121752) (or $x5193 $x26717 $x121752) (or $x19079 $x26717 $x121752) (or $x2025 $x2332 $x121752) (or $x2025 (<= (+ ?x902 L_0 S_2 ?x2566 ?x1346 ?x1347 ?x2561) 0.0) $x121752) $x177923 (or $x1669 $x19079 $x121752) (or $x1669 (<= (+ ?x902 L_0 S_2 ?x2566 ?x1346 ?x1347 ?x2561) 0.0) $x121752) (or $x1669 $x11474 $x27584 $x121635 $x121752) (or $x2623 $x13257 $x26717 $x121752) (or $x2623 $x8890 $x26717 $x121752) (or $x11474 $x26717 $x27584 $x121635 $x121752) (or $x2332 (<= (+ ?x746 ?x1667 A_0) 0.0) $x121752) (or $x1669 (<= (+ L_1 ?x1032 S_3 ?x2566 ?x1346 ?x1347 ?x2561) 0.0) $x121752) (or $x1669 $x4244 $x121752) (or $x12691 $x26717 $x121752) $x171714 $x153150 (or $x2025 $x12691 $x121752) (or $x2025 $x2607 $x13919 $x121565 $x121635 $x121752) (or $x1675 $x26737 $x121635) $x161353 (or $x2130 $x13904 $x13919 $x121565) (or $x1669 $x8250 $x121565) (or $x2506 $x2800) $x186521 $x154433 (or $x2024 (<= (+ L_1 ?x1032 S_3 ?x2566 ?x1346 ?x1347 ?x2561) 0.0) $x121752) $x168686 (or $x1298 $x1343 $x13906 $x26737) (or $x49231 $x121752) (or $x3010 $x8250 $x121565) (or $x3010 (<= (+ ?x902 L_0 S_2 ?x1335 ?x1334 ?x2128 ?x1336) 0.0) $x121565) (or $x2024 $x2332 $x121752) (or $x2506 $x13257 $x13906 $x121752) (or $x2024 (<= (+ ?x1487 A_2 ?x755 ?x902 L_0 S_1) 0.0) $x31638) (or $x2024 $x8250 $x121565) (or (not $x1365) $x2506 $x13257 $x121752) (or $x9035 $x27584 $x49274 $x121635 $x121752) (or $x11474 $x27584 $x49274 $x121635 $x121752) (or $x5193 $x49274 $x121752) (or $x19079 $x49274 $x121752) (or $x12691 $x49274 $x121752) (or (<= (+ ?x902 L_0 S_2 ?x2566 ?x1346 ?x1347 ?x2561) 0.0) $x49274 $x121752) (or $x2025 $x8112 $x121752) (or $x2024 $x2623 $x8890 $x121752) (or $x2607 $x13919 $x49274 $x121565 $x121635 $x121752) (or $x2607 $x5171 $x49274 $x121635 $x121752) $x177187 (or $x2607 (<= (+ ?x746 ?x1667 A_0) 0.0) $x121635 $x121752) (or $x2025 $x5925 $x121752) (or $x2025 $x13257 $x121752) (or $x2024 $x8112 $x121752) (or $x2024 $x30542) $x150124 (or $x2506 $x4244 $x57167 $x121752) (or $x1669 $x2070 $x2366 $x50941) (or $x1329 $x26717) $x148390 (or $x2025 $x2572 $x2607 $x121635 $x121752) (or $x1669 $x12691 $x121752) (or $x8250 $x26717 $x121565) (or $x2623 $x13257 $x49274 $x121752) (or $x2506 $x5193 $x121752) (or $x2506 $x12691 $x13906 $x121752) $x181536 (or $x2125 $x2560 $x12691 $x57167 $x121752) (or $x2607 $x2619 $x4224 $x57167 $x121635 $x121752) (or $x1706 $x3010 $x21605) $x164424 (or $x1264 $x2843 $x15649 $x49274) $x153219 (or $x2506 $x8250 $x121565) (or $x2845 $x5171 $x49210 $x121565) $x173844 (or $x2506 $x2845 $x5171 $x121565) (or $x1669 $x2623 $x13257 $x121752) $x164586 (or $x1675 $x2125 $x11474 $x121635 $x121752) $x160212 (or $x1669 $x30292 $x121752) (or $x1298 $x1343 $x1365 $x15667) (or $x2070 $x2623 $x5925 $x121752) (or $x2506 $x2623 $x5925 $x121752) (or $x1343 $x2506 $x15647 (<= (+ ?x704 ?x1215 ?x829 L_2 ?x764 ?x2569) 0.0)) $x158199 $x151665 $x180273 $x150469 (or $x2607 $x2619 $x4224 $x11474 $x121635 $x121752) (or $x1607 (<= (+ ?x1612 ?x1626 (* (/ 1.0 2.0) S_4) ?x1619) 0.0) $x21605) (or $x2070 $x15621 $x60442) (or $x2070 $x5171 $x19250 $x121635) (or $x1377 $x2506 $x4259 $x21731 $x121635) $x372317 $x152637 $x368300 (or $x1704 $x3010 (<= (+ ?x58854 ?x55873 ?x31234 ?x1619) 0.0)) (or $x2025 $x37351 $x121565) (or $x1669 (<= (+ ?x902 L_0 S_3 ?x2117 ?x2119 ?x2118 ?x2120) 0.0) $x121565) (or $x1669 (<= (+ ?x902 L_0 S_2 ?x1335 ?x1334 ?x2128 ?x1336) 0.0) $x121565) (or $x26717 (<= (+ ?x902 L_0 S_3 ?x2117 ?x2119 ?x2118 ?x2120) 0.0) $x121565) (or $x15621 $x26717) (or $x2366 $x26717 $x50941) $x175498 $x381298 (or $x13257 $x13872 $x15667 $x55583 $x121752) (or $x2506 $x2623 $x15650 $x55583 $x121752) $x91444 (or $x1371 $x3010 $x13925 $x121565) (or $x1371 $x26717 $x121565) $x148048 (or $x2024 $x4244 $x49284 $x121752) $x147429 $x373813 (or $x2506 $x4244 $x49284 $x121752) (or $x1377 $x4259 (<= ?x5676 0.0) (not $x21731) $x121635) (or $x2506 $x49199 $x56049 $x121752) $x374473 $x377450 (or $x1675 $x2572 $x49199 $x49210 $x121635) (or $x1706 $x2506 $x8264 $x49199 $x121752) $x378508 (or $x2024 (<= (+ ?x902 L_0 S_2 ?x1335 ?x1334 ?x2128 ?x1336) 0.0) $x121565) $x368844 $x142580 (or $x1675 $x2506 $x13927 $x121635) (or $x1318 $x2025 $x2786) (or $x2070 $x37351 $x121565) (or $x2506 $x37351 $x121565) (or $x1371 $x2506 $x13925 $x121565) (or $x2130 $x2560 $x13863 $x121565) $x380174 (or $x2366 $x3010 $x26726 $x50714) (or $x3010 $x21605 (<= (+ L_3 ?x885 S_4 ?x1612 ?x8655 ?x1626) 0.0)) $x380952 (or $x2025 $x2366 $x22157 $x50714) (or $x1669 $x2024 (not $x2856) $x2843 $x15649) (or $x1318 $x1669 $x2786 $x3010) $x388332 (or (<= (+ ?x902 L_0 S_3 ?x2117 ?x2119 ?x2118 ?x2120) 0.0) $x49274 $x121565) $x108826 (or $x1264 $x1669 $x2024 $x6125 $x15649) (or $x1669 $x2366 $x3010 $x22157 $x50714) $x377861 $x381706 (or $x2070 $x2366 $x13886 $x50941) (or $x2024 $x37351 $x121565) (or $x1371 $x49274 $x121565) $x385666 $x382997 $x162346 $x381798 (or $x2025 $x2366 $x22200 $x121565) (or $x2366 $x2506 $x13925 $x22200 $x121565) $x381038 (or $x1264 $x1280 $x2024 $x26751) $x373967 $x377376 (or $x1264 $x2024 $x13927 (not $x32181)) (or $x2506 $x2858 $x13927 $x22146 $x121635) (or $x2024 $x2843 $x21671 $x32181) $x156542 (or $x1675 $x2623 (not $x58231) $x59193 $x121635) (or $x1607 $x1675 $x13850 $x26729 $x121635) $x384916 (or $x1318 $x3010 $x26726) $x377651 $x111909 $x150419 (or $x1669 $x2366 $x22200 $x121565) $x384115 (or $x2403 (not $x2858) $x4225 $x13927 $x121635) (or $x2366 $x22200 $x26717 $x121565) $x1383 (<= (+ Q_4 ?x1215 S_4 L_3) 0.0) (<= (+ L_1 ?x1032 S_1) 0.0) (<= (+ S_0 L_0 ?x902) 0.0) (<= (+ ?x1667 S_0) 0.0) (<= (+ ?x1619 S_2) 0.0) (<= (+ ?x829 L_2 S_2) 0.0) (<= (+ ?x1659 S_1) 0.0) (<= (+ ?x1487 S_3) 0.0) (<= (+ L_3 ?x885 S_3) 0.0)))))))))))))))))))))))))))))))))))))))))))))))))))))))))))))))))))))))))))))))))))))))))))))))))))))))))))))))))))))))))))))))))))))))))))))))))))))))))))))))))))))))))))))))))))))))))))))))))))))))))))))))))))))))))))))))))))))))))))))))))))))))))))))))))))))))))))))))))))
(check-sat)
